
Gurobi 9.5.0 (linux64) logging started Thu Nov 25 19:03:54 2021

Set parameter LogFile to value "results/max3cut_numv169/max3cut_numv169_spinglass2g_1313_A-MILO_log.txt"
Gurobi Optimizer version 9.5.0 build v9.5.0rc5 (linux64)
Thread count: 20 physical cores, 40 logical processors, using up to 10 threads
Optimize a model with 3549 rows, 845 columns and 9971 nonzeros
Model fingerprint: 0x8f16e626
Variable types: 0 continuous, 845 integer (845 binary)
Coefficient statistics:
  Matrix range     [1e+00, 1e+00]
  Objective range  [4e+02, 3e+05]
  Bounds range     [1e+00, 1e+00]
  RHS range        [1e+00, 2e+00]
Found heuristic solution: objective 41826.000000
Presolve removed 375 rows and 7 columns
Presolve time: 0.01s
Presolved: 3174 rows, 838 columns, 9522 nonzeros
Crushed 0 out of 338 user cuts to presolved model
Variable types: 0 continuous, 838 integer (838 binary)

Root relaxation: objective 1.460675e+07, 510 iterations, 0.01 seconds (0.01 work units)

    Nodes    |    Current Node    |     Objective Bounds      |     Work
 Expl Unexpl |  Obj  Depth IntInf | Incumbent    BestBd   Gap | It/Node Time

     0     0 1.4607e+07    0  296 41826.0000 1.4607e+07      -     -    0s
H    0     0                    8194019.0000 1.4607e+07  78.3%     -    0s
H    0     0                    8207045.0000 1.4607e+07  78.0%     -    0s
H    0     0                    9266242.0000 1.4607e+07  57.6%     -    0s
H    0     0                    1.201092e+07 1.4554e+07  21.2%     -    0s
H    0     0                    1.212472e+07 1.4554e+07  20.0%     -    0s
     0     0 1.4554e+07    0  350 1.2125e+07 1.4554e+07  20.0%     -    0s
H    0     0                    1.220120e+07 1.4554e+07  19.3%     -    0s
     0     0 1.4528e+07    0  364 1.2201e+07 1.4528e+07  19.1%     -    0s
     0     0 1.4328e+07    0  475 1.2201e+07 1.4328e+07  17.4%     -    0s
     0     0 1.4315e+07    0  472 1.2201e+07 1.4315e+07  17.3%     -    0s
     0     0 1.4315e+07    0  488 1.2201e+07 1.4315e+07  17.3%     -    0s
H    0     0                    1.225824e+07 1.4315e+07  16.8%     -    0s
     0     0 1.4315e+07    0  485 1.2258e+07 1.4315e+07  16.8%     -    0s
     0     0 1.4315e+07    0  488 1.2258e+07 1.4315e+07  16.8%     -    0s
H    0     0                    1.233143e+07 1.4315e+07  16.1%     -    0s
H    0     0                    1.233680e+07 1.4176e+07  14.9%     -    0s
     0     0 1.4176e+07    0  478 1.2337e+07 1.4176e+07  14.9%     -    0s
H    0     0                    1.280242e+07 1.4176e+07  10.7%     -    0s
     0     0 1.4161e+07    0  482 1.2802e+07 1.4161e+07  10.6%     -    0s
     0     0 1.4159e+07    0  476 1.2802e+07 1.4159e+07  10.6%     -    0s
     0     0 1.4159e+07    0  488 1.2802e+07 1.4159e+07  10.6%     -    0s
     0     0 1.4097e+07    0  487 1.2802e+07 1.4097e+07  10.1%     -    0s
H    0     0                    1.281228e+07 1.4097e+07  10.0%     -    0s
     0     0 1.4094e+07    0  503 1.2812e+07 1.4094e+07  10.0%     -    0s
     0     0 1.4078e+07    0  499 1.2812e+07 1.4078e+07  9.88%     -    0s
H    0     0                    1.300618e+07 1.4078e+07  8.24%     -    0s
     0     0 1.4077e+07    0  504 1.3006e+07 1.4077e+07  8.23%     -    0s
     0     0 1.4066e+07    0  502 1.3006e+07 1.4066e+07  8.15%     -    0s
H    0     0                    1.302164e+07 1.4066e+07  8.02%     -    0s
     0     0 1.4064e+07    0  509 1.3022e+07 1.4064e+07  8.01%     -    0s
     0     0 1.4064e+07    0  508 1.3022e+07 1.4064e+07  8.01%     -    0s
H    0     0                    1.310093e+07 1.4064e+07  7.35%     -    0s
     0     0 1.4061e+07    0  507 1.3101e+07 1.4061e+07  7.33%     -    0s
     0     0 1.4061e+07    0  521 1.3101e+07 1.4061e+07  7.33%     -    0s
     0     0 1.4055e+07    0  530 1.3101e+07 1.4055e+07  7.29%     -    0s
H    0     0                    1.318556e+07 1.4055e+07  6.59%     -    0s
     0     0 1.4055e+07    0  532 1.3186e+07 1.4055e+07  6.59%     -    0s
     0     0 1.4054e+07    0  533 1.3186e+07 1.4054e+07  6.59%     -    0s
     0     0 1.4054e+07    0  534 1.3186e+07 1.4054e+07  6.59%     -    0s
     0     0 1.4045e+07    0  522 1.3186e+07 1.4045e+07  6.52%     -    0s
     0     0 1.4037e+07    0  537 1.3186e+07 1.4037e+07  6.46%     -    0s
     0     0 1.4035e+07    0  532 1.3186e+07 1.4035e+07  6.44%     -    0s
     0     0 1.4035e+07    0  534 1.3186e+07 1.4035e+07  6.44%     -    0s
H    0     0                    1.324846e+07 1.4035e+07  5.93%     -    0s
H    0     0                    1.326598e+07 1.4035e+07  5.79%     -    0s
H    0     0                    1.331745e+07 1.4035e+07  5.38%     -    0s
     0     0 1.4032e+07    0  536 1.3317e+07 1.4032e+07  5.36%     -    0s
     0     0 1.4032e+07    0  531 1.3317e+07 1.4032e+07  5.36%     -    0s
H    0     0                    1.340339e+07 1.4032e+07  4.69%     -    0s
     0     0 1.4030e+07    0  537 1.3403e+07 1.4030e+07  4.67%     -    0s
H    0     0                    1.340819e+07 1.4030e+07  4.64%     -    0s
     0     0 1.4028e+07    0  539 1.3408e+07 1.4028e+07  4.62%     -    0s
     0     0 1.4028e+07    0  540 1.3408e+07 1.4028e+07  4.62%     -    0s
     0     0 1.4026e+07    0  539 1.3408e+07 1.4026e+07  4.61%     -    0s
     0     0 1.4026e+07    0  539 1.3408e+07 1.4026e+07  4.61%     -    0s
H    0     0                    1.343056e+07 1.4026e+07  4.43%     -    0s
     0     0 1.4024e+07    0  540 1.3431e+07 1.4024e+07  4.42%     -    0s
     0     0 1.4023e+07    0  537 1.3431e+07 1.4023e+07  4.41%     -    0s
     0     0 1.4023e+07    0  522 1.3431e+07 1.4023e+07  4.41%     -    1s
H    0     0                    1.343536e+07 1.4023e+07  4.38%     -    1s
     0     2 1.4023e+07    0  516 1.3435e+07 1.4023e+07  4.38%     -    1s
H   74    91                    1.349465e+07 1.3969e+07  3.51%  43.7    1s
H  148   155                    1.349892e+07 1.3969e+07  3.48%  46.6    1s
H  191   196                    1.352896e+07 1.3969e+07  3.25%  53.7    1s
  3273  1581 1.3761e+07    8  521 1.3529e+07 1.3761e+07  1.72%  62.5    5s

Cutting planes:
  Gomory: 24
  MIR: 2
  Flow cover: 42
  Inf proof: 2
  Zero half: 76
  RLT: 19

Explored 3526 nodes (239140 simplex iterations) in 9.25 seconds (7.77 work units)
Thread count was 10 (of 40 available processors)

Solution count 10: 1.3529e+07 1.34989e+07 1.34946e+07 ... 1.32485e+07

Optimal solution found (tolerance 0.00e+00)
Best objective 1.352895500000e+07, best bound 1.352895500000e+07, gap 0.0000%
